Rodando pra 1h
Optimize a model with 93 rows, 113 columns and 474 nonzeros
Coefficient statistics:
  Matrix range    [1e+00, 1e+06]
  Objective range [3e-01, 3e-01]
  Bounds range    [1e+00, 1e+06]
  RHS range       [1e+00, 6e+00]
Presolve time: 0.00s
Presolved: 93 rows, 113 columns, 474 nonzeros
Variable types: 67 continuous, 46 integer (46 binary)

Root relaxation: objective 0.000000e+00, 29 iterations, 0.00 seconds

    Nodes    |    Current Node    |     Objective Bounds      |     Work
 Expl Unexpl |  Obj  Depth IntInf | Incumbent    BestBd   Gap | It/Node Time

     0     0    0.00000    0   17          -    0.00000      -     -    0s
H    0     0                     211.6664550    0.00000   100%     -    0s
     0     0    0.00000    0   25  211.66646    0.00000   100%     -    0s
     0     0    0.00000    0   25  211.66646    0.00000   100%     -    0s
     0     0    0.00000    0   26  211.66646    0.00000   100%     -    0s
     0     0    0.00000    0   17  211.66646    0.00000   100%     -    0s
     0     2    0.00000    0   16  211.66646    0.00000   100%     -    0s
*  259   172              16     210.9997890    0.00000   100%   9.2    0s
H  600   242                     198.9998010   47.58329  76.1%   7.7    0s
*  791   293              20     197.3331360   50.12495  74.6%   7.0    0s
*  849   267              20     166.3331670   50.98553  69.3%   6.9    0s
* 3556   283              29     165.9998340  131.33320  20.9%   5.1    0s

Explored 4454 nodes (21682 simplex iterations) in 0.72 seconds
Thread count was 1 (of 4 available processors)

Optimal solution found (tolerance 1.00e-04)
Best objective 1.659998340000e+02, best bound 1.659998340000e+02, gap 0.0%
Tempo: 0.72 segundos

0 2 21 44 40 60 42 
1 6 92 35 22 10 19 
2 4 81 26 22 31 12 
3 4 87 7 43 8 43 
3 6 98 15 10 5 21 
4 5 77 40 31 19 26 
(456 167 168 133 163 )

